# Solution for model r3_t18_m0_0 Batch Number: 3
# Finished Task: 17 / 18
# Makespan: 668.0, Total Distance: 477.0, Total Time: 4.4200
# R O S F Batch
0 0 11 0.0 0.0 -1
1 1 12 0.0 0.0 -1
2 2 17 0.0 0.0 -1
3 0 10 216.0 251.0 0
4 1 20 363.0 399.0 0
5 1 8 287.0 315.0 0
6 0 7 451.0 477.0 0
7 0 15 504.0 541.0 0
8 1 4 315.0 345.0 0
9 1 16 522.0 544.0 0
10 0 6 401.0 423.0 0
11 0 3 159.0 182.0 0
12 1 5 228.0 256.0 0
13 2 -1 602.0 629.0 2
14 -1 -1 -1.0 -1.0 2
15 0 19 568.0 602.0 2
16 1 18 588.0 618.0 1
17 2 13 506.0 544.0 0
18 1 -1 648.0 668.0 2
19 0 -1 615.0 653.0 2
20 1 9 457.0 496.0 0
